; Options: -in -smt2
(set-option :produce-unsat-assumptions true)

(declare-fun start!2303 () Bool)

(assert start!2303)

(declare-fun b!11907 () Bool)

(declare-fun res!9291 () Bool)

(declare-fun e!6905 () Bool)

(assert (=> b!11907 (=> (not res!9291) (not e!6905))))

(declare-datatypes ((array!903 0))(
  ( (array!904 (arr!397 (Array (_ BitVec 32) (_ BitVec 32))) (size!397 (_ BitVec 32))) )
))
(declare-fun iq!194 () array!903)

(declare-datatypes ((array!905 0))(
  ( (array!906 (arr!398 (Array (_ BitVec 32) (_ FloatingPoint 11 53))) (size!398 (_ BitVec 32))) )
))
(declare-fun qq!48 () array!905)

(declare-fun jz!59 () (_ BitVec 32))

(assert (=> b!11907 (= res!9291 (and (bvsle (select (arr!397 iq!194) (bvsub jz!59 #b00000000000000000000000000000001)) #b00000000011111111111111111111111) (= (size!398 qq!48) #b00000000000000000000000000010100)))))

(declare-fun b!11908 () Bool)

(declare-fun res!9294 () Bool)

(assert (=> b!11908 (=> (not res!9294) (not e!6905))))

(declare-fun qqInv!0 (array!905) Bool)

(assert (=> b!11908 (= res!9294 (qqInv!0 qq!48))))

(declare-fun lt!6352 () (_ BitVec 32))

(declare-fun b!11909 () Bool)

(declare-datatypes ((Unit!1355 0))(
  ( (Unit!1356) )
))
(declare-datatypes ((tuple4!276 0))(
  ( (tuple4!277 (_1!315 Unit!1355) (_2!315 array!903) (_3!252 (_ BitVec 32)) (_4!138 (_ FloatingPoint 11 53))) )
))
(declare-fun lt!6348 () tuple4!276)

(declare-fun lt!6347 () (_ BitVec 32))

(declare-datatypes ((tuple4!278 0))(
  ( (tuple4!279 (_1!316 Unit!1355) (_2!316 (_ BitVec 32)) (_3!253 array!903) (_4!139 (_ BitVec 32))) )
))
(declare-fun e!6901 () tuple4!278)

(declare-fun q!93 () array!905)

(declare-fun computeModuloWhile!3 ((_ BitVec 32) array!905 (_ BitVec 32) array!903 (_ BitVec 32)) tuple4!278)

(assert (=> b!11909 (= e!6901 (computeModuloWhile!3 jz!59 q!93 lt!6347 (_2!315 lt!6348) lt!6352))))

(declare-fun b!11910 () Bool)

(declare-fun e!6906 () Bool)

(declare-fun e!6908 () Bool)

(assert (=> b!11910 (= e!6906 e!6908)))

(declare-fun res!9295 () Bool)

(assert (=> b!11910 (=> (not res!9295) (not e!6908))))

(declare-fun lt!6354 () (_ FloatingPoint 11 53))

(assert (=> b!11910 (= res!9295 (and (fp.leq (fp #b0 #b00000000000 #b0000000000000000000000000000000000000000000000000000) lt!6354) (fp.lt lt!6354 (fp #b0 #b10000000010 #b0000000000000000000000000000000000000000000000000000))))))

(assert (=> b!11910 (= lt!6354 (fp.sub roundNearestTiesToEven (_4!138 lt!6348) (fp.mul roundNearestTiesToEven (fp #b0 #b10000000010 #b0000000000000000000000000000000000000000000000000000) ((_ to_fp 11 53) roundNearestTiesToEven (ite (fp.isNaN (fp.mul roundNearestTiesToEven (_4!138 lt!6348) (fp #b0 #b01111111100 #b0000000000000000000000000000000000000000000000000000))) #b0000000000000000000000000000000000000000000000000000000000000000 (ite (fp.gt (fp.mul roundNearestTiesToEven (_4!138 lt!6348) (fp #b0 #b01111111100 #b0000000000000000000000000000000000000000000000000000)) ((_ to_fp 11 53) roundTowardZero #b0111111111111111111111111111111111111111111111111111111111111111)) #b0111111111111111111111111111111111111111111111111111111111111111 (ite (fp.lt (fp.mul roundNearestTiesToEven (_4!138 lt!6348) (fp #b0 #b01111111100 #b0000000000000000000000000000000000000000000000000000)) ((_ to_fp 11 53) roundTowardZero #b1000000000000000000000000000000000000000000000000000000000000000)) #b1000000000000000000000000000000000000000000000000000000000000000 ((_ fp.to_sbv 64) roundTowardZero (fp.mul roundNearestTiesToEven (_4!138 lt!6348) (fp #b0 #b01111111100 #b0000000000000000000000000000000000000000000000000000))))))))))))

(declare-fun e!6902 () tuple4!276)

(assert (=> b!11910 (= lt!6348 e!6902)))

(declare-fun c!1523 () Bool)

(assert (=> b!11910 (= c!1523 (bvsgt jz!59 #b00000000000000000000000000000000))))

(declare-fun lt!6351 () (_ FloatingPoint 11 53))

(assert (=> b!11910 (= lt!6351 (select (arr!398 q!93) jz!59))))

(declare-fun lt!6357 () array!903)

(assert (=> b!11910 (= lt!6357 (array!904 ((as const (Array (_ BitVec 32) (_ BitVec 32))) #b00000000000000000000000000000000) #b00000000000000000000000000010100))))

(declare-fun lt!6350 () tuple4!278)

(declare-fun lt!6355 () (_ BitVec 32))

(declare-fun b!11911 () Bool)

(declare-datatypes ((tuple3!228 0))(
  ( (tuple3!229 (_1!317 Unit!1355) (_2!317 array!903) (_3!254 (_ BitVec 32))) )
))
(declare-fun e!6909 () tuple3!228)

(declare-fun Unit!1357 () Unit!1355)

(assert (=> b!11911 (= e!6909 (tuple3!229 Unit!1357 (array!904 (store (arr!397 (_3!253 lt!6350)) (bvsub jz!59 #b00000000000000000000000000000001) (ite (= (_4!139 lt!6350) #b00000000000000000000000000000000) (bvsub #b00000001000000000000000000000000 lt!6355) (bvsub #b00000000111111111111111111111111 lt!6355))) (size!397 (_3!253 lt!6350))) (_4!139 lt!6350)))))

(assert (=> b!11911 (= lt!6347 #b00000000000000000000000000000000)))

(declare-fun c!1522 () Bool)

(assert (=> b!11911 (= c!1522 (bvslt lt!6347 (bvsub jz!59 #b00000000000000000000000000000001)))))

(assert (=> b!11911 (= lt!6350 e!6901)))

(assert (=> b!11911 (= lt!6355 (select (arr!397 (_3!253 lt!6350)) (bvsub jz!59 #b00000000000000000000000000000001)))))

(declare-fun b!11912 () Bool)

(declare-fun res!9290 () Bool)

(assert (=> b!11912 (=> (not res!9290) (not e!6906))))

(declare-fun qInv!0 (array!905) Bool)

(assert (=> b!11912 (= res!9290 (qInv!0 q!93))))

(declare-fun b!11913 () Bool)

(declare-fun lt!6349 () (_ BitVec 32))

(declare-fun i!271 () (_ BitVec 32))

(assert (=> b!11913 (= e!6905 (and (not (= (bvand lt!6349 #b10000000000000000000000000000000) (bvand i!271 #b10000000000000000000000000000000))) (not (= (bvand lt!6349 #b10000000000000000000000000000000) (bvand (bvsub lt!6349 i!271) #b10000000000000000000000000000000)))))))

(assert (=> b!11913 (= lt!6349 (bvsub jz!59 #b00000000000000000000000000000001))))

(declare-fun res!9288 () Bool)

(assert (=> start!2303 (=> (not res!9288) (not e!6906))))

(assert (=> start!2303 (= res!9288 (and (bvsle #b00000000000000000000000000000010 jz!59) (bvslt jz!59 #b00000000000000000000000000010011)))))

(assert (=> start!2303 e!6906))

(assert (=> start!2303 true))

(declare-fun array_inv!346 (array!903) Bool)

(assert (=> start!2303 (array_inv!346 iq!194)))

(declare-fun array_inv!347 (array!905) Bool)

(assert (=> start!2303 (array_inv!347 qq!48)))

(assert (=> start!2303 (array_inv!347 q!93)))

(declare-fun b!11914 () Bool)

(declare-fun res!9293 () Bool)

(assert (=> b!11914 (=> (not res!9293) (not e!6905))))

(assert (=> b!11914 (= res!9293 (bvslt i!271 jz!59))))

(declare-fun b!11915 () Bool)

(declare-fun Unit!1358 () Unit!1355)

(assert (=> b!11915 (= e!6909 (tuple3!229 Unit!1358 (_2!315 lt!6348) lt!6352))))

(declare-fun b!11916 () Bool)

(declare-fun Unit!1359 () Unit!1355)

(assert (=> b!11916 (= e!6901 (tuple4!279 Unit!1359 lt!6347 (_2!315 lt!6348) lt!6352))))

(declare-fun b!11917 () Bool)

(declare-fun res!9287 () Bool)

(assert (=> b!11917 (=> (not res!9287) (not e!6905))))

(declare-fun QInt!0 ((_ BitVec 32)) Bool)

(assert (=> b!11917 (= res!9287 (QInt!0 (select (arr!397 iq!194) (bvsub (bvsub jz!59 #b00000000000000000000000000000001) i!271))))))

(declare-fun b!11918 () Bool)

(declare-fun computeModuloWhile!0 ((_ BitVec 32) array!905 array!903 (_ BitVec 32) (_ FloatingPoint 11 53)) tuple4!276)

(assert (=> b!11918 (= e!6902 (computeModuloWhile!0 jz!59 q!93 lt!6357 jz!59 lt!6351))))

(declare-fun b!11919 () Bool)

(assert (=> b!11919 (= e!6908 e!6905)))

(declare-fun res!9292 () Bool)

(assert (=> b!11919 (=> (not res!9292) (not e!6905))))

(declare-fun lt!6353 () Bool)

(declare-fun lt!6356 () tuple3!228)

(assert (=> b!11919 (= res!9292 (and (bvsle #b00000000000000000000000000000000 (select (arr!397 (_2!317 lt!6356)) (bvsub jz!59 #b00000000000000000000000000000001))) (bvsle (select (arr!397 (_2!317 lt!6356)) (bvsub jz!59 #b00000000000000000000000000000001)) #b00000000100000000000000000000000) (or (not lt!6353) (not (= (_3!254 lt!6356) #b00000000000000000000000000000000)) (not (= (select (arr!397 (_2!317 lt!6356)) (bvsub jz!59 #b00000000000000000000000000000001)) #b00000000100000000000000000000000))) (bvsle (select (arr!397 (_2!317 lt!6356)) (bvsub jz!59 #b00000000000000000000000000000001)) #b00000000011111111111111111111111) (bvsle #b00000000000000000000000000000000 i!271) (bvsle i!271 jz!59)))))

(assert (=> b!11919 (= lt!6356 e!6909)))

(declare-fun c!1521 () Bool)

(assert (=> b!11919 (= c!1521 lt!6353)))

(assert (=> b!11919 (= lt!6352 #b00000000000000000000000000000000)))

(assert (=> b!11919 (= lt!6353 (bvsge (select (arr!397 (_2!315 lt!6348)) (bvsub jz!59 #b00000000000000000000000000000001)) #b00000000100000000000000000000000))))

(declare-fun b!11920 () Bool)

(declare-fun Unit!1360 () Unit!1355)

(assert (=> b!11920 (= e!6902 (tuple4!277 Unit!1360 lt!6357 jz!59 lt!6351))))

(declare-fun b!11921 () Bool)

(declare-fun res!9289 () Bool)

(assert (=> b!11921 (=> (not res!9289) (not e!6905))))

(declare-fun iqInv!0 (array!903) Bool)

(assert (=> b!11921 (= res!9289 (iqInv!0 iq!194))))

(assert (= (and start!2303 res!9288) b!11912))

(assert (= (and b!11912 res!9290) b!11910))

(assert (= (and b!11910 c!1523) b!11918))

(assert (= (and b!11910 (not c!1523)) b!11920))

(assert (= (and b!11910 res!9295) b!11919))

(assert (= (and b!11919 c!1521) b!11911))

(assert (= (and b!11919 (not c!1521)) b!11915))

(assert (= (and b!11911 c!1522) b!11909))

(assert (= (and b!11911 (not c!1522)) b!11916))

(assert (= (and b!11919 res!9292) b!11921))

(assert (= (and b!11921 res!9289) b!11907))

(assert (= (and b!11907 res!9291) b!11908))

(assert (= (and b!11908 res!9294) b!11914))

(assert (= (and b!11914 res!9293) b!11917))

(assert (= (and b!11917 res!9287) b!11913))

(declare-fun m!16453 () Bool)

(assert (=> b!11918 m!16453))

(declare-fun m!16455 () Bool)

(assert (=> start!2303 m!16455))

(declare-fun m!16457 () Bool)

(assert (=> start!2303 m!16457))

(declare-fun m!16459 () Bool)

(assert (=> start!2303 m!16459))

(declare-fun m!16461 () Bool)

(assert (=> b!11919 m!16461))

(declare-fun m!16463 () Bool)

(assert (=> b!11919 m!16463))

(declare-fun m!16465 () Bool)

(assert (=> b!11921 m!16465))

(declare-fun m!16467 () Bool)

(assert (=> b!11910 m!16467))

(declare-fun m!16469 () Bool)

(assert (=> b!11907 m!16469))

(declare-fun m!16471 () Bool)

(assert (=> b!11909 m!16471))

(declare-fun m!16473 () Bool)

(assert (=> b!11912 m!16473))

(declare-fun m!16475 () Bool)

(assert (=> b!11908 m!16475))

(declare-fun m!16477 () Bool)

(assert (=> b!11911 m!16477))

(declare-fun m!16479 () Bool)

(assert (=> b!11911 m!16479))

(declare-fun m!16481 () Bool)

(assert (=> b!11917 m!16481))

(assert (=> b!11917 m!16481))

(declare-fun m!16483 () Bool)

(assert (=> b!11917 m!16483))

(check-sat (not b!11909) (not b!11908) (not b!11918) (not start!2303) (not b!11912) (not b!11921) (not b!11917))
(check-sat)
